Sat 19 May 19:15:01 CEST 2018
CPXPARAM_TimeLimit                               45
CPXPARAM_Threads                                 1
CPXPARAM_MIP_Strategy_CallbackReducedLP          0
Tried aggregator 4 times.
MIP Presolve eliminated 4292 rows and 4176 columns.
MIP Presolve modified 6859 coefficients.
Aggregator did 15706 substitutions.
Reduced MIP has 20558 rows, 16769 columns, and 46656 nonzeros.
Reduced MIP has 14989 binaries, 14 generals, 0 SOSs, and 2522 indicators.
Presolve time = 0.25 sec. (654.57 ticks)
Found incumbent of value 37.000000 after 0.37 sec. (784.27 ticks)
Probing fixed 20 vars, tightened 0 bounds.
Probing time = 0.86 sec. (745.39 ticks)
Tried aggregator 3 times.
MIP Presolve eliminated 2668 rows and 514 columns.
MIP Presolve modified 288 coefficients.
Aggregator did 9210 substitutions.
Reduced MIP has 8680 rows, 7045 columns, and 25076 nonzeros.
Reduced MIP has 5451 binaries, 1594 generals, 0 SOSs, and 2358 indicators.
Presolve time = 0.07 sec. (92.48 ticks)
Probing time = 0.13 sec. (107.74 ticks)
Tried aggregator 3 times.
Aggregator did 280 substitutions.
Reduced MIP has 8400 rows, 6765 columns, and 24516 nonzeros.
Reduced MIP has 5171 binaries, 1594 generals, 0 SOSs, and 2358 indicators.
Presolve time = 0.04 sec. (40.38 ticks)
Probing time = 0.01 sec. (5.97 ticks)
Clique table members: 187813.
MIP emphasis: balance optimality and feasibility.
MIP search method: dynamic search.
Parallel mode: none, using 1 thread.
Root relaxation solution time = 0.05 sec. (64.73 ticks)

        Nodes                                         Cuts/
   Node  Left     Objective  IInf  Best Integer    Best Bound    ItCnt     Gap

*     0+    0                           37.0000        0.0000           100.00%
      0     0        0.0000  2724       37.0000        0.0000      806  100.00%
      0     0        0.0000  2444       37.0000 Cliques: 2200     1129  100.00%
      0     0        0.0000  2161       37.0000 Cliques: 2200     1486  100.00%
      0     0        0.0000  2176       37.0000 Cliques: 2200     1736  100.00%
      0     0        0.0000  2192       37.0000 Cliques: 2200     1978  100.00%
      0     2        0.0000  2191       37.0000        0.0000     1979  100.00%
Elapsed time = 30.04 sec. (32246.36 ticks, tree = 0.01 MB, solutions = 1)
     10    12        0.0000  2171       37.0000        0.0000     1979  100.00%
     44    46        0.0000  2104       37.0000        0.0000     2182  100.00%
     76    78        0.0000  2040       37.0000        0.0000     2182  100.00%
     88    88        cutoff             37.0000        7.0000     2598   81.08%
     94    94        7.0000  1558       37.0000        7.0000     3112   81.08%
     99    99        7.0000  1553       37.0000        7.0000     3376   81.08%
    112   112        7.0000  1525       37.0000        7.0000     3829   81.08%
    116   116       31.0000  1527       37.0000        7.0000     4172   81.08%
    117   117        7.0000  1522       37.0000        7.0000     4364   81.08%
    198   198        7.0000  1243       37.0000        7.0000     4551   81.08%
Elapsed time = 34.33 sec. (36237.06 ticks, tree = 1.33 MB, solutions = 1)
    300   300        7.0000  1032       37.0000        7.0000     5532   81.08%
    304   304        7.0000   461       37.0000        7.0000     6773   81.08%
    447   447        7.0000   234       37.0000        7.0000     8619   81.08%

Clique cuts applied:  8073

Root node processing (before b&c):
  Real time             =   30.01 sec. (32222.28 ticks)
Sequential b&c:
  Real time             =   14.99 sec. (18487.60 ticks)
                          ------------
Total (root+branch&cut) =   45.00 sec. (50709.89 ticks)
   | W
 L |  0  1  2  3 
----------------
 0 |  .  .  .  2 
 1 |  .  .  .  . 
 2 |  .  . 12 12 
 3 |  .  . 12 12 
 4 |  .  . 12 12 
 5 |  .  . 12 12 
 6 |  .  . 12 12 
 7 |  .  . 12 12 
 8 |  .  . 12 12 
 9 | 13 13  .  . 
10 | 13 13  7  . 
11 | 13 13  7  . 
12 | 13 13  7  . 
13 | 13 13  .  . 
14 | 13 13  .  . 
15 | 13 13  .  . 
16 |  .  .  .  . 
17 |  .  .  8  5 
18 |  .  .  8  5 
19 |  .  .  8  . 
20 |  .  .  .  . 
21 |  .  .  .  . 
22 |  .  .  .  9 
23 |  .  . 11  9 
24 |  .  . 11  9 
25 |  .  . 11  6 
26 |  .  .  .  6 
27 |  .  .  .  . 
28 |  .  .  .  . 
29 |  .  .  .  . 
30 |  .  .  .  . 
31 |  .  .  .  . 
32 |  .  . 10  . 
33 |  .  . 10  . 
34 |  .  . 10  . 
35 |  .  .  .  . 
36 |  .  1  3  4 

Boxes' corners:       (w,l)
    Box  1 is at 
        top left     (1,36)
        bottom right (1,36)

    Box  2 is at 
        top left     (3,0)
        bottom right (3,0)

    Box  3 is at 
        top left     (2,36)
        bottom right (2,36)

    Box  4 is at 
        top left     (3,36)
        bottom right (3,36)

    Box  5 is at 
        top left     (3,17)
        bottom right (3,18)

    Box  6 is at 
        top left     (3,25)
        bottom right (3,26)

    Box  7 is at 
        top left     (2,10)
        bottom right (2,12)

    Box  8 is at 
        top left     (2,17)
        bottom right (2,19)

    Box  9 is at 
        top left     (3,22)
        bottom right (3,24)

    Box 10 is at 
        top left     (2,32)
        bottom right (2,34)

    Box 11 is at 
        top left     (2,23)
        bottom right (2,25)

    Box 12 is at 
        top left     (2,2)
        bottom right (3,8)

    Box 13 is at 
        top left     (0,9)
        bottom right (1,15)

    Roll length used: 37
In 45.21 seconds
